(set-info :source |printed by MathSAT|)

0 (4) @37:
(assert true)

4 (17) @63:
(assert true)

17 (26,25,24,23,22,21,19,18) @63:
(assert true)

26 () @474:
(assert true)

25 () @475:
(assert true)

24 () @476:
(assert true)

23 () @477:
(assert true)

22 () @63:
(assert true)

21 () @478:
(assert true)

19 () @479:
(assert true)

18 () @480:
(assert true)

